p cnf 436 1478
c p weight -173 1 0
c p weight 173 -1 0
c p weight 177 6.12323399573676603586882014729198302312846062338790031898128063403419218957424163818359375E-17 0
c p weight -177 1 0
c p weight 178 1 0
c p weight -178 1 0
c p weight -175 1 0
c p weight 175 -1 0
c p weight -179 1 0
c p weight 179 -1 0
c p weight -181 1 0
c p weight 181 -1 0
c p weight -184 1 0
c p weight 184 -1 0
c p weight -187 1 0
c p weight 187 -1 0
c p weight -190 1 0
c p weight 190 -1 0
c p weight -193 1 0
c p weight 193 -1 0
c p weight -196 1 0
c p weight 196 -1 0
c p weight -199 1 0
c p weight 199 -1 0
c p weight -202 1 0
c p weight 202 -1 0
c p weight -205 1 0
c p weight 205 -1 0
c p weight -208 1 0
c p weight 208 -1 0
c p weight -211 1 0
c p weight 211 -1 0
c p weight -214 1 0
c p weight 214 -1 0
c p weight -217 1 0
c p weight 217 -1 0
c p weight -220 1 0
c p weight 220 -1 0
c p weight -223 1 0
c p weight 223 -1 0
c p weight -226 1 0
c p weight 226 -1 0
c p weight -229 1 0
c p weight 229 -1 0
c p weight -232 1 0
c p weight 232 -1 0
c p weight -235 1 0
c p weight 235 -1 0
c p weight -238 1 0
c p weight 238 -1 0
c p weight -241 1 0
c p weight 241 -1 0
c p weight -244 1 0
c p weight 244 -1 0
c p weight -247 1 0
c p weight 247 -1 0
c p weight -250 1 0
c p weight 250 -1 0
c p weight -253 1 0
c p weight 253 -1 0
c p weight -256 1 0
c p weight 256 -1 0
c p weight -259 1 0
c p weight 259 -1 0
c p weight -262 1 0
c p weight 262 -1 0
c p weight -265 1 0
c p weight 265 -1 0
c p weight -268 1 0
c p weight 268 -1 0
c p weight -271 1 0
c p weight 271 -1 0
c p weight -274 1 0
c p weight 274 -1 0
c p weight -277 1 0
c p weight 277 -1 0
c p weight -280 1 0
c p weight 280 -1 0
c p weight -283 1 0
c p weight 283 -1 0
c p weight -286 1 0
c p weight 286 -1 0
c p weight -289 1 0
c p weight 289 -1 0
c p weight -292 1 0
c p weight 292 -1 0
c p weight -295 1 0
c p weight 295 -1 0
c p weight -298 1 0
c p weight 298 -1 0
c p weight -301 1 0
c p weight 301 -1 0
c p weight -304 1 0
c p weight 304 -1 0
c p weight -307 1 0
c p weight 307 -1 0
c p weight -310 1 0
c p weight 310 -1 0
c p weight -313 1 0
c p weight 313 -1 0
c p weight -316 1 0
c p weight 316 -1 0
c p weight -319 1 0
c p weight 319 -1 0
c p weight -322 1 0
c p weight 322 -1 0
c p weight -325 1 0
c p weight 325 -1 0
c p weight -328 1 0
c p weight 328 -1 0
c p weight -331 1 0
c p weight 331 -1 0
c p weight -334 1 0
c p weight 334 -1 0
c p weight -337 1 0
c p weight 337 -1 0
c p weight -340 1 0
c p weight 340 -1 0
c p weight -343 1 0
c p weight 343 -1 0
c p weight -346 1 0
c p weight 346 -1 0
c p weight -349 1 0
c p weight 349 -1 0
c p weight -352 1 0
c p weight 352 -1 0
c p weight -355 1 0
c p weight 355 -1 0
c p weight -358 1 0
c p weight 358 -1 0
c p weight -361 1 0
c p weight 361 -1 0
c p weight -364 1 0
c p weight 364 -1 0
c p weight -367 1 0
c p weight 367 -1 0
c p weight -370 1 0
c p weight 370 -1 0
c p weight -373 1 0
c p weight 373 -1 0
c p weight -376 1 0
c p weight 376 -1 0
c p weight -379 1 0
c p weight 379 -1 0
c p weight -382 1 0
c p weight 382 -1 0
c p weight -385 1 0
c p weight 385 -1 0
c p weight -388 1 0
c p weight 388 -1 0
c p weight -391 1 0
c p weight 391 -1 0
c p weight -394 1 0
c p weight 394 -1 0
c p weight -397 1 0
c p weight 397 -1 0
c p weight -400 1 0
c p weight 400 -1 0
c p weight -403 1 0
c p weight 403 -1 0
c p weight -406 1 0
c p weight 406 -1 0
c p weight -409 1 0
c p weight 409 -1 0
c p weight -412 1 0
c p weight 412 -1 0
c p weight -415 1 0
c p weight 415 -1 0
c p weight -418 1 0
c p weight 418 -1 0
c p weight -421 1 0
c p weight 421 -1 0
c p weight -424 1 0
c p weight 424 -1 0
c p weight -427 1 0
c p weight 427 -1 0
c p weight -430 1 0
c p weight 430 -1 0
c p weight -433 1 0
c p weight 433 -1 0
c p weight 436 0.5 0
c p weight -436 1 0
436 0
-171 0
-169 0
-167 0
-165 0
-163 0
-161 0
-159 0
-157 0
-155 0
-153 0
-151 0
-149 0
-147 0
-145 0
-143 0
-141 0
-139 0
-137 0
-135 0
-133 0
-131 0
-129 0
-127 0
-125 0
-123 0
-121 0
-119 0
-117 0
-115 0
-113 0
-111 0
-109 0
-107 0
-105 0
-103 0
-101 0
-99 0
-97 0
-95 0
-93 0
-91 0
-89 0
-87 0
-85 0
-83 0
-81 0
-79 0
-77 0
-75 0
-73 0
-71 0
-69 0
-67 0
-65 0
-63 0
-61 0
-59 0
-57 0
-55 0
-53 0
-51 0
-49 0
-47 0
-45 0
-43 0
-41 0
-39 0
-37 0
-35 0
-33 0
-31 0
-29 0
-27 0
-25 0
-23 0
-21 0
-19 0
-17 0
-15 0
-13 0
-11 0
-9 0
-7 0
-5 0
-3 0
-1 0
-173 171 0
-173 172 0
173 -171 -172 0
174 171 -172 0
174 -171 172 0
-174 171 172 0
-174 -171 -172 0
-175 176 0
-175 174 0
-175 -171 0
175 -176 171 -174 0
176 -171 174 0
-176 171 174 0
-177 174 0
176 -177 -171 0
-176 -177 171 0
176 177 171 -174 0
-176 177 -171 -174 0
-178 174 0
176 -178 171 0
-176 -178 -171 0
176 178 -171 -174 0
-176 178 171 -174 0
-179 176 0
-179 174 0
179 -176 -174 0
180 176 -174 0
180 -176 174 0
-180 176 174 0
-180 -176 -174 0
-181 176 0
-181 170 0
-181 169 -180 0
-181 -169 180 0
181 -176 169 180 -170 0
181 -176 -169 -180 -170 0
183 176 -169 0
183 -176 169 0
-183 176 169 0
-183 -176 -169 0
182 180 -170 0
182 -180 170 0
-182 180 170 0
-182 -180 -170 0
-184 183 0
-184 168 0
-184 167 -170 0
-184 -167 170 0
184 -183 167 170 -168 0
184 -183 -167 -170 -168 0
186 183 -167 0
186 -183 167 0
-186 183 167 0
-186 -183 -167 0
185 170 -168 0
185 -170 168 0
-185 170 168 0
-185 -170 -168 0
-187 186 0
-187 166 0
-187 165 -168 0
-187 -165 168 0
187 -186 165 168 -166 0
187 -186 -165 -168 -166 0
189 186 -165 0
189 -186 165 0
-189 186 165 0
-189 -186 -165 0
188 168 -166 0
188 -168 166 0
-188 168 166 0
-188 -168 -166 0
-190 189 0
-190 164 0
-190 163 -166 0
-190 -163 166 0
190 -189 163 166 -164 0
190 -189 -163 -166 -164 0
192 189 -163 0
192 -189 163 0
-192 189 163 0
-192 -189 -163 0
191 166 -164 0
191 -166 164 0
-191 166 164 0
-191 -166 -164 0
-193 192 0
-193 162 0
-193 161 -164 0
-193 -161 164 0
193 -192 161 164 -162 0
193 -192 -161 -164 -162 0
195 192 -161 0
195 -192 161 0
-195 192 161 0
-195 -192 -161 0
194 164 -162 0
194 -164 162 0
-194 164 162 0
-194 -164 -162 0
-196 195 0
-196 160 0
-196 159 -162 0
-196 -159 162 0
196 -195 159 162 -160 0
196 -195 -159 -162 -160 0
198 195 -159 0
198 -195 159 0
-198 195 159 0
-198 -195 -159 0
197 162 -160 0
197 -162 160 0
-197 162 160 0
-197 -162 -160 0
-199 198 0
-199 158 0
-199 157 -160 0
-199 -157 160 0
199 -198 157 160 -158 0
199 -198 -157 -160 -158 0
201 198 -157 0
201 -198 157 0
-201 198 157 0
-201 -198 -157 0
200 160 -158 0
200 -160 158 0
-200 160 158 0
-200 -160 -158 0
-202 201 0
-202 156 0
-202 155 -158 0
-202 -155 158 0
202 -201 155 158 -156 0
202 -201 -155 -158 -156 0
204 201 -155 0
204 -201 155 0
-204 201 155 0
-204 -201 -155 0
203 158 -156 0
203 -158 156 0
-203 158 156 0
-203 -158 -156 0
-205 204 0
-205 154 0
-205 153 -156 0
-205 -153 156 0
205 -204 153 156 -154 0
205 -204 -153 -156 -154 0
207 204 -153 0
207 -204 153 0
-207 204 153 0
-207 -204 -153 0
206 156 -154 0
206 -156 154 0
-206 156 154 0
-206 -156 -154 0
-208 207 0
-208 152 0
-208 151 -154 0
-208 -151 154 0
208 -207 151 154 -152 0
208 -207 -151 -154 -152 0
210 207 -151 0
210 -207 151 0
-210 207 151 0
-210 -207 -151 0
209 154 -152 0
209 -154 152 0
-209 154 152 0
-209 -154 -152 0
-211 210 0
-211 150 0
-211 149 -152 0
-211 -149 152 0
211 -210 149 152 -150 0
211 -210 -149 -152 -150 0
213 210 -149 0
213 -210 149 0
-213 210 149 0
-213 -210 -149 0
212 152 -150 0
212 -152 150 0
-212 152 150 0
-212 -152 -150 0
-214 213 0
-214 148 0
-214 147 -150 0
-214 -147 150 0
214 -213 147 150 -148 0
214 -213 -147 -150 -148 0
216 213 -147 0
216 -213 147 0
-216 213 147 0
-216 -213 -147 0
215 150 -148 0
215 -150 148 0
-215 150 148 0
-215 -150 -148 0
-217 216 0
-217 146 0
-217 145 -148 0
-217 -145 148 0
217 -216 145 148 -146 0
217 -216 -145 -148 -146 0
219 216 -145 0
219 -216 145 0
-219 216 145 0
-219 -216 -145 0
218 148 -146 0
218 -148 146 0
-218 148 146 0
-218 -148 -146 0
-220 219 0
-220 144 0
-220 143 -146 0
-220 -143 146 0
220 -219 143 146 -144 0
220 -219 -143 -146 -144 0
222 219 -143 0
222 -219 143 0
-222 219 143 0
-222 -219 -143 0
221 146 -144 0
221 -146 144 0
-221 146 144 0
-221 -146 -144 0
-223 222 0
-223 142 0
-223 141 -144 0
-223 -141 144 0
223 -222 141 144 -142 0
223 -222 -141 -144 -142 0
225 222 -141 0
225 -222 141 0
-225 222 141 0
-225 -222 -141 0
224 144 -142 0
224 -144 142 0
-224 144 142 0
-224 -144 -142 0
-226 225 0
-226 140 0
-226 139 -142 0
-226 -139 142 0
226 -225 139 142 -140 0
226 -225 -139 -142 -140 0
228 225 -139 0
228 -225 139 0
-228 225 139 0
-228 -225 -139 0
227 142 -140 0
227 -142 140 0
-227 142 140 0
-227 -142 -140 0
-229 228 0
-229 138 0
-229 137 -140 0
-229 -137 140 0
229 -228 137 140 -138 0
229 -228 -137 -140 -138 0
231 228 -137 0
231 -228 137 0
-231 228 137 0
-231 -228 -137 0
230 140 -138 0
230 -140 138 0
-230 140 138 0
-230 -140 -138 0
-232 231 0
-232 136 0
-232 135 -138 0
-232 -135 138 0
232 -231 135 138 -136 0
232 -231 -135 -138 -136 0
234 231 -135 0
234 -231 135 0
-234 231 135 0
-234 -231 -135 0
233 138 -136 0
233 -138 136 0
-233 138 136 0
-233 -138 -136 0
-235 234 0
-235 134 0
-235 133 -136 0
-235 -133 136 0
235 -234 133 136 -134 0
235 -234 -133 -136 -134 0
237 234 -133 0
237 -234 133 0
-237 234 133 0
-237 -234 -133 0
236 136 -134 0
236 -136 134 0
-236 136 134 0
-236 -136 -134 0
-238 237 0
-238 132 0
-238 131 -134 0
-238 -131 134 0
238 -237 131 134 -132 0
238 -237 -131 -134 -132 0
240 237 -131 0
240 -237 131 0
-240 237 131 0
-240 -237 -131 0
239 134 -132 0
239 -134 132 0
-239 134 132 0
-239 -134 -132 0
-241 240 0
-241 130 0
-241 129 -132 0
-241 -129 132 0
241 -240 129 132 -130 0
241 -240 -129 -132 -130 0
243 240 -129 0
243 -240 129 0
-243 240 129 0
-243 -240 -129 0
242 132 -130 0
242 -132 130 0
-242 132 130 0
-242 -132 -130 0
-244 243 0
-244 128 0
-244 127 -130 0
-244 -127 130 0
244 -243 127 130 -128 0
244 -243 -127 -130 -128 0
246 243 -127 0
246 -243 127 0
-246 243 127 0
-246 -243 -127 0
245 130 -128 0
245 -130 128 0
-245 130 128 0
-245 -130 -128 0
-247 246 0
-247 126 0
-247 125 -128 0
-247 -125 128 0
247 -246 125 128 -126 0
247 -246 -125 -128 -126 0
249 246 -125 0
249 -246 125 0
-249 246 125 0
-249 -246 -125 0
248 128 -126 0
248 -128 126 0
-248 128 126 0
-248 -128 -126 0
-250 249 0
-250 124 0
-250 123 -126 0
-250 -123 126 0
250 -249 123 126 -124 0
250 -249 -123 -126 -124 0
252 249 -123 0
252 -249 123 0
-252 249 123 0
-252 -249 -123 0
251 126 -124 0
251 -126 124 0
-251 126 124 0
-251 -126 -124 0
-253 252 0
-253 122 0
-253 121 -124 0
-253 -121 124 0
253 -252 121 124 -122 0
253 -252 -121 -124 -122 0
255 252 -121 0
255 -252 121 0
-255 252 121 0
-255 -252 -121 0
254 124 -122 0
254 -124 122 0
-254 124 122 0
-254 -124 -122 0
-256 255 0
-256 120 0
-256 119 -122 0
-256 -119 122 0
256 -255 119 122 -120 0
256 -255 -119 -122 -120 0
258 255 -119 0
258 -255 119 0
-258 255 119 0
-258 -255 -119 0
257 122 -120 0
257 -122 120 0
-257 122 120 0
-257 -122 -120 0
-259 258 0
-259 118 0
-259 117 -120 0
-259 -117 120 0
259 -258 117 120 -118 0
259 -258 -117 -120 -118 0
261 258 -117 0
261 -258 117 0
-261 258 117 0
-261 -258 -117 0
260 120 -118 0
260 -120 118 0
-260 120 118 0
-260 -120 -118 0
-262 261 0
-262 116 0
-262 115 -118 0
-262 -115 118 0
262 -261 115 118 -116 0
262 -261 -115 -118 -116 0
264 261 -115 0
264 -261 115 0
-264 261 115 0
-264 -261 -115 0
263 118 -116 0
263 -118 116 0
-263 118 116 0
-263 -118 -116 0
-265 264 0
-265 114 0
-265 113 -116 0
-265 -113 116 0
265 -264 113 116 -114 0
265 -264 -113 -116 -114 0
267 264 -113 0
267 -264 113 0
-267 264 113 0
-267 -264 -113 0
266 116 -114 0
266 -116 114 0
-266 116 114 0
-266 -116 -114 0
-268 267 0
-268 112 0
-268 111 -114 0
-268 -111 114 0
268 -267 111 114 -112 0
268 -267 -111 -114 -112 0
270 267 -111 0
270 -267 111 0
-270 267 111 0
-270 -267 -111 0
269 114 -112 0
269 -114 112 0
-269 114 112 0
-269 -114 -112 0
-271 270 0
-271 110 0
-271 109 -112 0
-271 -109 112 0
271 -270 109 112 -110 0
271 -270 -109 -112 -110 0
273 270 -109 0
273 -270 109 0
-273 270 109 0
-273 -270 -109 0
272 112 -110 0
272 -112 110 0
-272 112 110 0
-272 -112 -110 0
-274 273 0
-274 108 0
-274 107 -110 0
-274 -107 110 0
274 -273 107 110 -108 0
274 -273 -107 -110 -108 0
276 273 -107 0
276 -273 107 0
-276 273 107 0
-276 -273 -107 0
275 110 -108 0
275 -110 108 0
-275 110 108 0
-275 -110 -108 0
-277 276 0
-277 106 0
-277 105 -108 0
-277 -105 108 0
277 -276 105 108 -106 0
277 -276 -105 -108 -106 0
279 276 -105 0
279 -276 105 0
-279 276 105 0
-279 -276 -105 0
278 108 -106 0
278 -108 106 0
-278 108 106 0
-278 -108 -106 0
-280 279 0
-280 104 0
-280 103 -106 0
-280 -103 106 0
280 -279 103 106 -104 0
280 -279 -103 -106 -104 0
282 279 -103 0
282 -279 103 0
-282 279 103 0
-282 -279 -103 0
281 106 -104 0
281 -106 104 0
-281 106 104 0
-281 -106 -104 0
-283 282 0
-283 102 0
-283 101 -104 0
-283 -101 104 0
283 -282 101 104 -102 0
283 -282 -101 -104 -102 0
285 282 -101 0
285 -282 101 0
-285 282 101 0
-285 -282 -101 0
284 104 -102 0
284 -104 102 0
-284 104 102 0
-284 -104 -102 0
-286 285 0
-286 100 0
-286 99 -102 0
-286 -99 102 0
286 -285 99 102 -100 0
286 -285 -99 -102 -100 0
288 285 -99 0
288 -285 99 0
-288 285 99 0
-288 -285 -99 0
287 102 -100 0
287 -102 100 0
-287 102 100 0
-287 -102 -100 0
-289 288 0
-289 98 0
-289 97 -100 0
-289 -97 100 0
289 -288 97 100 -98 0
289 -288 -97 -100 -98 0
291 288 -97 0
291 -288 97 0
-291 288 97 0
-291 -288 -97 0
290 100 -98 0
290 -100 98 0
-290 100 98 0
-290 -100 -98 0
-292 291 0
-292 96 0
-292 95 -98 0
-292 -95 98 0
292 -291 95 98 -96 0
292 -291 -95 -98 -96 0
294 291 -95 0
294 -291 95 0
-294 291 95 0
-294 -291 -95 0
293 98 -96 0
293 -98 96 0
-293 98 96 0
-293 -98 -96 0
-295 294 0
-295 94 0
-295 93 -96 0
-295 -93 96 0
295 -294 93 96 -94 0
295 -294 -93 -96 -94 0
297 294 -93 0
297 -294 93 0
-297 294 93 0
-297 -294 -93 0
296 96 -94 0
296 -96 94 0
-296 96 94 0
-296 -96 -94 0
-298 297 0
-298 92 0
-298 91 -94 0
-298 -91 94 0
298 -297 91 94 -92 0
298 -297 -91 -94 -92 0
300 297 -91 0
300 -297 91 0
-300 297 91 0
-300 -297 -91 0
299 94 -92 0
299 -94 92 0
-299 94 92 0
-299 -94 -92 0
-301 300 0
-301 90 0
-301 89 -92 0
-301 -89 92 0
301 -300 89 92 -90 0
301 -300 -89 -92 -90 0
303 300 -89 0
303 -300 89 0
-303 300 89 0
-303 -300 -89 0
302 92 -90 0
302 -92 90 0
-302 92 90 0
-302 -92 -90 0
-304 303 0
-304 88 0
-304 87 -90 0
-304 -87 90 0
304 -303 87 90 -88 0
304 -303 -87 -90 -88 0
306 303 -87 0
306 -303 87 0
-306 303 87 0
-306 -303 -87 0
305 90 -88 0
305 -90 88 0
-305 90 88 0
-305 -90 -88 0
-307 306 0
-307 86 0
-307 85 -88 0
-307 -85 88 0
307 -306 85 88 -86 0
307 -306 -85 -88 -86 0
309 306 -85 0
309 -306 85 0
-309 306 85 0
-309 -306 -85 0
308 88 -86 0
308 -88 86 0
-308 88 86 0
-308 -88 -86 0
-310 309 0
-310 84 0
-310 83 -86 0
-310 -83 86 0
310 -309 83 86 -84 0
310 -309 -83 -86 -84 0
312 309 -83 0
312 -309 83 0
-312 309 83 0
-312 -309 -83 0
311 86 -84 0
311 -86 84 0
-311 86 84 0
-311 -86 -84 0
-313 312 0
-313 82 0
-313 81 -84 0
-313 -81 84 0
313 -312 81 84 -82 0
313 -312 -81 -84 -82 0
315 312 -81 0
315 -312 81 0
-315 312 81 0
-315 -312 -81 0
314 84 -82 0
314 -84 82 0
-314 84 82 0
-314 -84 -82 0
-316 315 0
-316 80 0
-316 79 -82 0
-316 -79 82 0
316 -315 79 82 -80 0
316 -315 -79 -82 -80 0
318 315 -79 0
318 -315 79 0
-318 315 79 0
-318 -315 -79 0
317 82 -80 0
317 -82 80 0
-317 82 80 0
-317 -82 -80 0
-319 318 0
-319 78 0
-319 77 -80 0
-319 -77 80 0
319 -318 77 80 -78 0
319 -318 -77 -80 -78 0
321 318 -77 0
321 -318 77 0
-321 318 77 0
-321 -318 -77 0
320 80 -78 0
320 -80 78 0
-320 80 78 0
-320 -80 -78 0
-322 321 0
-322 76 0
-322 75 -78 0
-322 -75 78 0
322 -321 75 78 -76 0
322 -321 -75 -78 -76 0
324 321 -75 0
324 -321 75 0
-324 321 75 0
-324 -321 -75 0
323 78 -76 0
323 -78 76 0
-323 78 76 0
-323 -78 -76 0
-325 324 0
-325 74 0
-325 73 -76 0
-325 -73 76 0
325 -324 73 76 -74 0
325 -324 -73 -76 -74 0
327 324 -73 0
327 -324 73 0
-327 324 73 0
-327 -324 -73 0
326 76 -74 0
326 -76 74 0
-326 76 74 0
-326 -76 -74 0
-328 327 0
-328 72 0
-328 71 -74 0
-328 -71 74 0
328 -327 71 74 -72 0
328 -327 -71 -74 -72 0
330 327 -71 0
330 -327 71 0
-330 327 71 0
-330 -327 -71 0
329 74 -72 0
329 -74 72 0
-329 74 72 0
-329 -74 -72 0
-331 330 0
-331 70 0
-331 69 -72 0
-331 -69 72 0
331 -330 69 72 -70 0
331 -330 -69 -72 -70 0
333 330 -69 0
333 -330 69 0
-333 330 69 0
-333 -330 -69 0
332 72 -70 0
332 -72 70 0
-332 72 70 0
-332 -72 -70 0
-334 333 0
-334 68 0
-334 67 -70 0
-334 -67 70 0
334 -333 67 70 -68 0
334 -333 -67 -70 -68 0
336 333 -67 0
336 -333 67 0
-336 333 67 0
-336 -333 -67 0
335 70 -68 0
335 -70 68 0
-335 70 68 0
-335 -70 -68 0
-337 336 0
-337 66 0
-337 65 -68 0
-337 -65 68 0
337 -336 65 68 -66 0
337 -336 -65 -68 -66 0
339 336 -65 0
339 -336 65 0
-339 336 65 0
-339 -336 -65 0
338 68 -66 0
338 -68 66 0
-338 68 66 0
-338 -68 -66 0
-340 339 0
-340 64 0
-340 63 -66 0
-340 -63 66 0
340 -339 63 66 -64 0
340 -339 -63 -66 -64 0
342 339 -63 0
342 -339 63 0
-342 339 63 0
-342 -339 -63 0
341 66 -64 0
341 -66 64 0
-341 66 64 0
-341 -66 -64 0
-343 342 0
-343 62 0
-343 61 -64 0
-343 -61 64 0
343 -342 61 64 -62 0
343 -342 -61 -64 -62 0
345 342 -61 0
345 -342 61 0
-345 342 61 0
-345 -342 -61 0
344 64 -62 0
344 -64 62 0
-344 64 62 0
-344 -64 -62 0
-346 345 0
-346 60 0
-346 59 -62 0
-346 -59 62 0
346 -345 59 62 -60 0
346 -345 -59 -62 -60 0
348 345 -59 0
348 -345 59 0
-348 345 59 0
-348 -345 -59 0
347 62 -60 0
347 -62 60 0
-347 62 60 0
-347 -62 -60 0
-349 348 0
-349 58 0
-349 57 -60 0
-349 -57 60 0
349 -348 57 60 -58 0
349 -348 -57 -60 -58 0
351 348 -57 0
351 -348 57 0
-351 348 57 0
-351 -348 -57 0
350 60 -58 0
350 -60 58 0
-350 60 58 0
-350 -60 -58 0
-352 351 0
-352 56 0
-352 55 -58 0
-352 -55 58 0
352 -351 55 58 -56 0
352 -351 -55 -58 -56 0
354 351 -55 0
354 -351 55 0
-354 351 55 0
-354 -351 -55 0
353 58 -56 0
353 -58 56 0
-353 58 56 0
-353 -58 -56 0
-355 354 0
-355 54 0
-355 53 -56 0
-355 -53 56 0
355 -354 53 56 -54 0
355 -354 -53 -56 -54 0
357 354 -53 0
357 -354 53 0
-357 354 53 0
-357 -354 -53 0
356 56 -54 0
356 -56 54 0
-356 56 54 0
-356 -56 -54 0
-358 357 0
-358 52 0
-358 51 -54 0
-358 -51 54 0
358 -357 51 54 -52 0
358 -357 -51 -54 -52 0
360 357 -51 0
360 -357 51 0
-360 357 51 0
-360 -357 -51 0
359 54 -52 0
359 -54 52 0
-359 54 52 0
-359 -54 -52 0
-361 360 0
-361 50 0
-361 49 -52 0
-361 -49 52 0
361 -360 49 52 -50 0
361 -360 -49 -52 -50 0
363 360 -49 0
363 -360 49 0
-363 360 49 0
-363 -360 -49 0
362 52 -50 0
362 -52 50 0
-362 52 50 0
-362 -52 -50 0
-364 363 0
-364 48 0
-364 47 -50 0
-364 -47 50 0
364 -363 47 50 -48 0
364 -363 -47 -50 -48 0
366 363 -47 0
366 -363 47 0
-366 363 47 0
-366 -363 -47 0
365 50 -48 0
365 -50 48 0
-365 50 48 0
-365 -50 -48 0
-367 366 0
-367 46 0
-367 45 -48 0
-367 -45 48 0
367 -366 45 48 -46 0
367 -366 -45 -48 -46 0
369 366 -45 0
369 -366 45 0
-369 366 45 0
-369 -366 -45 0
368 48 -46 0
368 -48 46 0
-368 48 46 0
-368 -48 -46 0
-370 369 0
-370 44 0
-370 43 -46 0
-370 -43 46 0
370 -369 43 46 -44 0
370 -369 -43 -46 -44 0
372 369 -43 0
372 -369 43 0
-372 369 43 0
-372 -369 -43 0
371 46 -44 0
371 -46 44 0
-371 46 44 0
-371 -46 -44 0
-373 372 0
-373 42 0
-373 41 -44 0
-373 -41 44 0
373 -372 41 44 -42 0
373 -372 -41 -44 -42 0
375 372 -41 0
375 -372 41 0
-375 372 41 0
-375 -372 -41 0
374 44 -42 0
374 -44 42 0
-374 44 42 0
-374 -44 -42 0
-376 375 0
-376 40 0
-376 39 -42 0
-376 -39 42 0
376 -375 39 42 -40 0
376 -375 -39 -42 -40 0
378 375 -39 0
378 -375 39 0
-378 375 39 0
-378 -375 -39 0
377 42 -40 0
377 -42 40 0
-377 42 40 0
-377 -42 -40 0
-379 378 0
-379 38 0
-379 37 -40 0
-379 -37 40 0
379 -378 37 40 -38 0
379 -378 -37 -40 -38 0
381 378 -37 0
381 -378 37 0
-381 378 37 0
-381 -378 -37 0
380 40 -38 0
380 -40 38 0
-380 40 38 0
-380 -40 -38 0
-382 381 0
-382 36 0
-382 35 -38 0
-382 -35 38 0
382 -381 35 38 -36 0
382 -381 -35 -38 -36 0
384 381 -35 0
384 -381 35 0
-384 381 35 0
-384 -381 -35 0
383 38 -36 0
383 -38 36 0
-383 38 36 0
-383 -38 -36 0
-385 384 0
-385 34 0
-385 33 -36 0
-385 -33 36 0
385 -384 33 36 -34 0
385 -384 -33 -36 -34 0
387 384 -33 0
387 -384 33 0
-387 384 33 0
-387 -384 -33 0
386 36 -34 0
386 -36 34 0
-386 36 34 0
-386 -36 -34 0
-388 387 0
-388 32 0
-388 31 -34 0
-388 -31 34 0
388 -387 31 34 -32 0
388 -387 -31 -34 -32 0
390 387 -31 0
390 -387 31 0
-390 387 31 0
-390 -387 -31 0
389 34 -32 0
389 -34 32 0
-389 34 32 0
-389 -34 -32 0
-391 390 0
-391 30 0
-391 29 -32 0
-391 -29 32 0
391 -390 29 32 -30 0
391 -390 -29 -32 -30 0
393 390 -29 0
393 -390 29 0
-393 390 29 0
-393 -390 -29 0
392 32 -30 0
392 -32 30 0
-392 32 30 0
-392 -32 -30 0
-394 393 0
-394 28 0
-394 27 -30 0
-394 -27 30 0
394 -393 27 30 -28 0
394 -393 -27 -30 -28 0
396 393 -27 0
396 -393 27 0
-396 393 27 0
-396 -393 -27 0
395 30 -28 0
395 -30 28 0
-395 30 28 0
-395 -30 -28 0
-397 396 0
-397 26 0
-397 25 -28 0
-397 -25 28 0
397 -396 25 28 -26 0
397 -396 -25 -28 -26 0
399 396 -25 0
399 -396 25 0
-399 396 25 0
-399 -396 -25 0
398 28 -26 0
398 -28 26 0
-398 28 26 0
-398 -28 -26 0
-400 399 0
-400 24 0
-400 23 -26 0
-400 -23 26 0
400 -399 23 26 -24 0
400 -399 -23 -26 -24 0
402 399 -23 0
402 -399 23 0
-402 399 23 0
-402 -399 -23 0
401 26 -24 0
401 -26 24 0
-401 26 24 0
-401 -26 -24 0
-403 402 0
-403 22 0
-403 21 -24 0
-403 -21 24 0
403 -402 21 24 -22 0
403 -402 -21 -24 -22 0
405 402 -21 0
405 -402 21 0
-405 402 21 0
-405 -402 -21 0
404 24 -22 0
404 -24 22 0
-404 24 22 0
-404 -24 -22 0
-406 405 0
-406 20 0
-406 19 -22 0
-406 -19 22 0
406 -405 19 22 -20 0
406 -405 -19 -22 -20 0
408 405 -19 0
408 -405 19 0
-408 405 19 0
-408 -405 -19 0
407 22 -20 0
407 -22 20 0
-407 22 20 0
-407 -22 -20 0
-409 408 0
-409 18 0
-409 17 -20 0
-409 -17 20 0
409 -408 17 20 -18 0
409 -408 -17 -20 -18 0
411 408 -17 0
411 -408 17 0
-411 408 17 0
-411 -408 -17 0
410 20 -18 0
410 -20 18 0
-410 20 18 0
-410 -20 -18 0
-412 411 0
-412 16 0
-412 15 -18 0
-412 -15 18 0
412 -411 15 18 -16 0
412 -411 -15 -18 -16 0
414 411 -15 0
414 -411 15 0
-414 411 15 0
-414 -411 -15 0
413 18 -16 0
413 -18 16 0
-413 18 16 0
-413 -18 -16 0
-415 414 0
-415 14 0
-415 13 -16 0
-415 -13 16 0
415 -414 13 16 -14 0
415 -414 -13 -16 -14 0
417 414 -13 0
417 -414 13 0
-417 414 13 0
-417 -414 -13 0
416 16 -14 0
416 -16 14 0
-416 16 14 0
-416 -16 -14 0
-418 417 0
-418 12 0
-418 11 -14 0
-418 -11 14 0
418 -417 11 14 -12 0
418 -417 -11 -14 -12 0
420 417 -11 0
420 -417 11 0
-420 417 11 0
-420 -417 -11 0
419 14 -12 0
419 -14 12 0
-419 14 12 0
-419 -14 -12 0
-421 420 0
-421 10 0
-421 9 -12 0
-421 -9 12 0
421 -420 9 12 -10 0
421 -420 -9 -12 -10 0
423 420 -9 0
423 -420 9 0
-423 420 9 0
-423 -420 -9 0
422 12 -10 0
422 -12 10 0
-422 12 10 0
-422 -12 -10 0
-424 423 0
-424 8 0
-424 7 -10 0
-424 -7 10 0
424 -423 7 10 -8 0
424 -423 -7 -10 -8 0
426 423 -7 0
426 -423 7 0
-426 423 7 0
-426 -423 -7 0
425 10 -8 0
425 -10 8 0
-425 10 8 0
-425 -10 -8 0
-427 426 0
-427 6 0
-427 5 -8 0
-427 -5 8 0
427 -426 5 8 -6 0
427 -426 -5 -8 -6 0
429 426 -5 0
429 -426 5 0
-429 426 5 0
-429 -426 -5 0
428 8 -6 0
428 -8 6 0
-428 8 6 0
-428 -8 -6 0
-430 429 0
-430 4 0
-430 3 -6 0
-430 -3 6 0
430 -429 3 6 -4 0
430 -429 -3 -6 -4 0
432 429 -3 0
432 -429 3 0
-432 429 3 0
-432 -429 -3 0
431 6 -4 0
431 -6 4 0
-431 6 4 0
-431 -6 -4 0
-433 432 0
-433 2 0
-433 1 -4 0
-433 -1 4 0
433 -432 1 4 -2 0
433 -432 -1 -4 -2 0
435 432 -1 0
435 -432 1 0
-435 432 1 0
-435 -432 -1 0
434 4 -2 0
434 -4 2 0
-434 4 2 0
-434 -4 -2 0
-435 0
-432 0
-434 0
-429 0
-431 0
-426 0
-428 0
-423 0
-425 0
-420 0
-422 0
-417 0
-419 0
-414 0
-416 0
-411 0
-413 0
-408 0
-410 0
-405 0
-407 0
-402 0
-404 0
-399 0
-401 0
-396 0
-398 0
-393 0
-395 0
-390 0
-392 0
-387 0
-389 0
-384 0
-386 0
-381 0
-383 0
-378 0
-380 0
-375 0
-377 0
-372 0
-374 0
-369 0
-371 0
-366 0
-368 0
-363 0
-365 0
-360 0
-362 0
-357 0
-359 0
-354 0
-356 0
-351 0
-353 0
-348 0
-350 0
-345 0
-347 0
-342 0
-344 0
-339 0
-341 0
-336 0
-338 0
-333 0
-335 0
-330 0
-332 0
-327 0
-329 0
-324 0
-326 0
-321 0
-323 0
-318 0
-320 0
-315 0
-317 0
-312 0
-314 0
-309 0
-311 0
-306 0
-308 0
-303 0
-305 0
-300 0
-302 0
-297 0
-299 0
-294 0
-296 0
-291 0
-293 0
-288 0
-290 0
-285 0
-287 0
-282 0
-284 0
-279 0
-281 0
-276 0
-278 0
-273 0
-275 0
-270 0
-272 0
-267 0
-269 0
-264 0
-266 0
-261 0
-263 0
-258 0
-260 0
-255 0
-257 0
-252 0
-254 0
-249 0
-251 0
-246 0
-248 0
-243 0
-245 0
-240 0
-242 0
-237 0
-239 0
-234 0
-236 0
-231 0
-233 0
-228 0
-230 0
-225 0
-227 0
-222 0
-224 0
-219 0
-221 0
-216 0
-218 0
-213 0
-215 0
-210 0
-212 0
-207 0
-209 0
-204 0
-206 0
-201 0
-203 0
-198 0
-200 0
-195 0
-197 0
-192 0
-194 0
-189 0
-191 0
-186 0
-188 0
-183 0
-185 0
-176 0
-182 0
